c ren 1 -> 1
c ren 2 -> 2
c ren 3 -> 3
c ren 4 -> 4
c ren 5 -> 5
c ren 6 -> 6
c ren 7 -> 7
c ren 8 -> 8
c ren 9 -> 9
c ren 10 -> 10
c ren 11 -> 11
c ren 12 -> 12
c ren 13 -> 13
c ren 14 -> 14
c ren 15 -> 15
c ren 16 -> 16
c ren 18 -> 17
c ren 19 -> 18
c ren 20 -> 19
c ren 21 -> 20
c ren 22 -> 21
c ren 23 -> 22
c ren 24 -> 23
c ren 25 -> 24
c ren 26 -> 25
c ren 27 -> 26
c ren 28 -> 27
c ren 29 -> 28
c ren 33 -> 29
c ren 41 -> 30
c ren 60 -> 31
c ren 63 -> 32
p cnf 32 165
a 1 2 3 4 5 6 7 8 9 10 11 12 13 14 15 16 17 18 19 20 21 22 0
d 23 2 17 0
d 24 7 19 0
d 25 5 18 0
d 26 10 21 0
d 27 9 20 0
d 28 12 22 0
e 29 30 31 32 0
-3 16 31 32 0
-3 12 -15 -31 32 0
1 -17 29 0
-1 17 29 0
-1 -17 -29 0
1 17 -29 0
-1 18 30 0
-3 18 30 0
1 2 3 4 -18 30 0
-2 9 -10 -24 32 0
-4 -18 -30 0
1 2 3 4 5 -6 25 32 0
-3 -8 -24 32 0
1 2 3 4 5 6 7 9 -10 24 32 0
-4 -6 -25 32 0
-4 9 -10 -24 32 0
1 2 3 4 5 6 7 -8 24 32 0
30 32 0
6 8 9 -19 -20 -21 -22 -24 -25 -29 -30 -31 -32 0
-6 8 -9 19 -20 21 -22 -24 -29 -30 -31 -32 0
-5 -7 -25 32 0
8 -9 19 -20 21 22 -24 25 -29 -30 31 -32 0
6 -8 -19 20 21 -22 -25 -29 -30 -31 -32 0
6 8 -9 -19 -20 21 -22 -24 -25 -29 -30 -31 -32 0
8 9 19 -20 -21 -22 -24 25 -29 -30 -31 -32 0
6 -8 -19 20 21 22 -25 -29 -30 31 -32 0
6 8 -9 -19 -20 21 22 -24 -25 -29 -30 31 -32 0
6 -19 20 21 -22 24 -25 -29 -30 -31 -32 0
-4 18 30 0
-6 -8 19 20 21 22 -29 -30 31 -32 0
-6 9 -10 -24 32 0
-3 -27 32 0
-6 -8 19 20 21 -22 -29 -30 -31 -32 0
-6 8 9 19 -20 -21 -22 -24 -29 -30 -31 -32 0
8 -9 19 -20 21 -22 -24 25 -29 -30 -31 -32 0
-8 19 20 21 -22 25 -29 -30 -31 -32 0
-4 -27 32 0
-8 19 20 21 22 25 -29 -30 31 -32 0
8 9 19 -20 -21 22 -24 25 -29 -30 31 -32 0
-5 9 -10 -24 32 0
19 20 21 -22 24 25 -29 -30 -31 -32 0
29 32 0
-11 -31 0
26 -31 0
11 -26 31 0
-3 -11 -26 32 0
19 20 21 22 24 25 -29 -30 31 -32 0
-6 8 9 19 -20 -21 22 -24 -29 -30 31 -32 0
-3 -28 32 0
-3 12 -14 -31 32 0
-3 12 -13 -31 32 0
-3 12 -16 -31 32 0
-1 -23 32 0
1 -2 23 32 0
-2 -11 -26 32 0
-2 -28 32 0
-2 12 -14 -31 32 0
-2 16 31 32 0
-2 12 -16 -31 32 0
-2 18 30 0
-3 -7 -25 32 0
-2 12 -15 -31 32 0
-3 -18 -30 0
1 2 3 4 18 -30 0
-2 -6 -25 32 0
-2 -18 -30 0
-2 12 -13 -31 32 0
-4 -28 32 0
1 2 3 4 5 6 7 8 9 10 11 12 -13 31 32 0
-2 -27 32 0
-2 -8 -24 32 0
-2 -7 -25 32 0
-1 -18 -30 0
-1 -6 -25 32 0
-5 -6 -25 32 0
-1 -8 -24 32 0
-5 -8 -24 32 0
-6 8 -9 19 -20 21 22 -24 -29 -30 31 -32 0
-4 -11 -26 32 0
6 -19 20 21 22 24 -25 -29 -30 31 -32 0
-3 9 -10 -24 32 0
-4 12 -14 -31 32 0
-4 12 -15 -31 32 0
-4 16 31 32 0
-4 12 -13 -31 32 0
-4 12 -16 -31 32 0
-4 -7 -25 32 0
1 2 3 4 5 6 7 8 -9 27 32 0
-5 -27 32 0
-6 -27 32 0
1 2 3 4 5 6 7 8 9 10 11 -12 28 32 0
-5 -28 32 0
-5 16 31 32 0
-6 -8 -24 32 0
-5 12 -15 -31 32 0
-5 12 -16 -31 32 0
-5 12 -14 -31 32 0
-5 12 -13 -31 32 0
-5 -11 -26 32 0
6 8 9 -19 -20 -21 22 -24 -25 -29 -30 31 -32 0
-3 -6 -25 32 0
-7 -8 -24 32 0
-1 -28 32 0
-6 19 20 21 22 24 -29 -30 31 -32 0
-6 16 31 32 0
-6 12 -14 -31 32 0
-7 -27 32 0
-6 12 -16 -31 32 0
-6 12 -13 -31 32 0
-6 12 -15 -31 32 0
1 2 3 4 5 6 7 8 9 10 -11 26 32 0
-6 -28 32 0
-4 -8 -24 32 0
-6 19 20 21 -22 24 -29 -30 -31 -32 0
-8 -11 -26 32 0
1 2 3 4 5 6 7 8 9 10 11 12 -14 31 32 0
-7 12 -14 -31 32 0
-7 16 31 32 0
-7 12 -13 -31 32 0
-7 12 -15 -31 32 0
-7 9 -10 -24 32 0
-7 -11 -26 32 0
-1 12 -14 -31 32 0
-8 -28 32 0
-1 12 -16 -31 32 0
-9 -28 32 0
1 2 3 4 5 6 7 8 9 10 11 12 -16 31 32 0
-8 12 -15 -31 32 0
-8 12 -16 -31 32 0
-9 -11 -26 32 0
-8 16 31 32 0
-8 -27 32 0
-8 12 -13 -31 32 0
-1 16 31 32 0
-7 -28 32 0
-8 12 -14 -31 32 0
-6 -11 -26 32 0
-1 -7 -25 32 0
-10 -11 -26 32 0
-10 16 31 32 0
-9 12 -16 -31 32 0
-9 12 -13 -31 32 0
-10 -28 32 0
1 2 3 4 5 6 7 8 9 10 11 12 -15 31 32 0
1 2 3 4 5 -7 25 32 0
-9 12 -15 -31 32 0
-1 12 -13 -31 32 0
-11 16 32 0
-1 9 -10 -24 32 0
-10 12 -14 -31 32 0
-9 12 -14 -31 32 0
-12 16 32 0
-10 12 -15 -31 32 0
-9 16 31 32 0
-1 -27 32 0
-1 12 -15 -31 32 0
-11 -28 32 0
-13 16 32 0
12 13 14 15 -16 -31 32 0
1 2 3 4 5 6 7 8 9 10 16 -31 32 0
-1 -11 -26 32 0
-14 16 32 0
-10 12 -16 -31 32 0
-15 16 32 0
-10 12 -13 -31 32 0
